This is Ipopt version 3.12.13, running with linear solver ma57.

Number of nonzeros in equality constraint Jacobian...:        0
Number of nonzeros in inequality constraint Jacobian.:    22344
Number of nonzeros in Lagrangian Hessian.............:       21

Total number of variables............................:        6
                     variables with only lower bounds:        0
                variables with lower and upper bounds:        6
                     variables with only upper bounds:        0
Total number of equality constraints.................:        0
Total number of inequality constraints...............:     3724
        inequality constraints with only lower bounds:        0
   inequality constraints with lower and upper bounds:        0
        inequality constraints with only upper bounds:     3724

iter    objective    inf_pr   inf_du lg(mu)  ||d||  lg(rg) alpha_du alpha_pr  ls
   0  2.5466976e-03 0.00e+00 6.84e+00   0.0 0.00e+00    -  0.00e+00 0.00e+00   0
   1  2.5396824e-03 0.00e+00 2.73e-01  -5.5 1.00e-02    -  9.77e-01 9.90e-01h  1
   2  1.1683657e-03 0.00e+00 2.56e+00  -3.0 8.15e-02    -  7.24e-01 9.90e-01f  1
   3  6.7295844e-04 0.00e+00 2.90e-01  -3.6 5.69e-02    -  9.90e-01 9.91e-01h  1
   4  4.7296186e-04 0.00e+00 1.68e+02  -3.7 5.83e-02    -  9.92e-01 1.00e+00h  1
   5  2.0672888e-04 0.00e+00 6.06e-05  -4.1 2.08e-02    -  1.00e+00 1.00e+00h  1
   6  1.1520203e-05 0.00e+00 3.79e+02  -5.0 3.47e-02    -  9.94e-01 1.00e+00h  1
   7  8.1778450e-08 0.00e+00 2.63e-07  -6.0 1.03e-02    -  1.00e+00 1.00e+00h  1
   8  1.3160929e-12 0.00e+00 7.34e+00 -11.0 1.65e-03    -  9.93e-01 1.00e+00h  1
   9  5.2158001e-15 0.00e+00 1.02e-13  -9.4 1.77e-04    -  1.00e+00 1.00e+00h  1

Number of Iterations....: 9

                                   (scaled)                 (unscaled)
Objective...............:   5.2158001034156976e-15    5.2158001034156976e-15
Dual infeasibility......:   1.0233085804672062e-13    1.0233085804672062e-13
Constraint violation....:   0.0000000000000000e+00    0.0000000000000000e+00
Complementarity.........:   4.2570916764229464e-10    4.2570916764229464e-10
Overall NLP error.......:   4.2570916764229464e-10    4.2570916764229464e-10


Number of objective function evaluations             = 10
Number of objective gradient evaluations             = 10
Number of equality constraint evaluations            = 0
Number of inequality constraint evaluations          = 10
Number of equality constraint Jacobian evaluations   = 0
Number of inequality constraint Jacobian evaluations = 10
Number of Lagrangian Hessian evaluations             = 9
Total CPU secs in IPOPT (w/o function evaluations)   =      0.029
Total CPU secs in NLP function evaluations           =      0.012

EXIT: Optimal Solution Found.
